c Standarized MaxSat Instance
c{
c "sha1sum": "8d93291a315d79d5c86bbeac56f19aae9897492b",
c "nvars": 40,
c "ncls": 1038,
c "nhards": 0,
c "nhard_len_stats":
c    { "min": 0, "max": 0, "ave": 0.00,
c      "stddev": 0.00 },
c "nsofts": 1038,
c "nsoft_len_stats":
c    { "min": 2, "max": 2, "ave": 2.00,
c      "stddev": 0.00 },
c "nsoft_wts": 10,
c "soft_wt_stats":
c    { "min": 1, "max": 10, "ave": 5.62,
c      "stddev": 2.83 }
c}
c------------------------------------------------------------
c FILE:  brock200_3.b
c
c Graph Generator
c
c By: Mark Brockington (brock@cs.ualberta.ca)
c and Joe Culberson (joe@cs.ualberta.ca)
c
c Graph Size:200, Clique Size: 15
c Seed:32, Edge Density:  0.60000
c Depth 2 Hiding
c
c Clique Elements are:
c 37 177 129 157 143 97 96 117 28 172 
c 35 83 57 103 11 
c
c Estimated Size of Uncompressed File:   0.1MB
c
p wcnf 40 1038 5835
9 1 3 0
9 -1 -3 0
4 1 4 0
4 -1 -4 0
8 1 9 0
8 -1 -9 0
8 1 11 0
8 -1 -11 0
10 1 14 0
10 -1 -14 0
2 1 16 0
2 -1 -16 0
4 1 17 0
4 -1 -17 0
8 1 19 0
8 -1 -19 0
3 1 20 0
3 -1 -20 0
6 1 21 0
6 -1 -21 0
5 1 22 0
5 -1 -22 0
7 1 23 0
7 -1 -23 0
4 1 24 0
4 -1 -24 0
6 1 26 0
6 -1 -26 0
10 1 28 0
10 -1 -28 0
10 1 34 0
10 -1 -34 0
7 1 35 0
7 -1 -35 0
8 1 36 0
8 -1 -36 0
2 1 38 0
2 -1 -38 0
7 2 3 0
7 -2 -3 0
1 2 5 0
1 -2 -5 0
3 2 6 0
3 -2 -6 0
2 2 7 0
2 -2 -7 0
9 2 8 0
9 -2 -8 0
2 2 9 0
2 -2 -9 0
5 2 12 0
5 -2 -12 0
2 2 14 0
2 -2 -14 0
2 2 15 0
2 -2 -15 0
10 2 17 0
10 -2 -17 0
3 2 18 0
3 -2 -18 0
6 2 19 0
6 -2 -19 0
9 2 20 0
9 -2 -20 0
7 2 21 0
7 -2 -21 0
3 2 24 0
3 -2 -24 0
7 2 28 0
7 -2 -28 0
6 2 29 0
6 -2 -29 0
5 2 31 0
5 -2 -31 0
10 2 33 0
10 -2 -33 0
3 2 35 0
3 -2 -35 0
8 2 38 0
8 -2 -38 0
6 2 39 0
6 -2 -39 0
8 3 4 0
8 -3 -4 0
5 3 5 0
5 -3 -5 0
9 3 6 0
9 -3 -6 0
3 3 7 0
3 -3 -7 0
4 3 8 0
4 -3 -8 0
9 3 9 0
9 -3 -9 0
10 3 10 0
10 -3 -10 0
1 3 12 0
1 -3 -12 0
10 3 13 0
10 -3 -13 0
6 3 14 0
6 -3 -14 0
1 3 15 0
1 -3 -15 0
2 3 16 0
2 -3 -16 0
7 3 17 0
7 -3 -17 0
9 3 18 0
9 -3 -18 0
4 3 19 0
4 -3 -19 0
1 3 20 0
1 -3 -20 0
1 3 21 0
1 -3 -21 0
5 3 23 0
5 -3 -23 0
1 3 24 0
1 -3 -24 0
3 3 25 0
3 -3 -25 0
10 3 26 0
10 -3 -26 0
10 3 27 0
10 -3 -27 0
9 3 28 0
9 -3 -28 0
3 3 29 0
3 -3 -29 0
6 3 30 0
6 -3 -30 0
4 3 31 0
4 -3 -31 0
8 3 32 0
8 -3 -32 0
6 3 33 0
6 -3 -33 0
7 3 34 0
7 -3 -34 0
6 3 35 0
6 -3 -35 0
1 3 36 0
1 -3 -36 0
5 3 37 0
5 -3 -37 0
10 3 38 0
10 -3 -38 0
10 3 40 0
10 -3 -40 0
8 4 5 0
8 -4 -5 0
3 4 7 0
3 -4 -7 0
8 4 9 0
8 -4 -9 0
7 4 10 0
7 -4 -10 0
4 4 11 0
4 -4 -11 0
7 4 12 0
7 -4 -12 0
2 4 13 0
2 -4 -13 0
5 4 15 0
5 -4 -15 0
9 4 16 0
9 -4 -16 0
9 4 17 0
9 -4 -17 0
4 4 18 0
4 -4 -18 0
3 4 19 0
3 -4 -19 0
9 4 21 0
9 -4 -21 0
4 4 22 0
4 -4 -22 0
7 4 23 0
7 -4 -23 0
10 4 24 0
10 -4 -24 0
6 4 25 0
6 -4 -25 0
7 4 26 0
7 -4 -26 0
9 4 27 0
9 -4 -27 0
5 4 28 0
5 -4 -28 0
10 4 29 0
10 -4 -29 0
4 4 31 0
4 -4 -31 0
9 4 33 0
9 -4 -33 0
7 4 34 0
7 -4 -34 0
10 4 36 0
10 -4 -36 0
5 4 39 0
5 -4 -39 0
3 5 7 0
3 -5 -7 0
10 5 8 0
10 -5 -8 0
10 5 9 0
10 -5 -9 0
2 5 11 0
2 -5 -11 0
9 5 12 0
9 -5 -12 0
7 5 13 0
7 -5 -13 0
5 5 14 0
5 -5 -14 0
7 5 15 0
7 -5 -15 0
3 5 16 0
3 -5 -16 0
8 5 19 0
8 -5 -19 0
4 5 20 0
4 -5 -20 0
5 5 21 0
5 -5 -21 0
3 5 22 0
3 -5 -22 0
2 5 25 0
2 -5 -25 0
3 5 28 0
3 -5 -28 0
6 5 29 0
6 -5 -29 0
5 5 31 0
5 -5 -31 0
2 5 32 0
2 -5 -32 0
10 5 33 0
10 -5 -33 0
2 5 36 0
2 -5 -36 0
2 5 38 0
2 -5 -38 0
5 5 39 0
5 -5 -39 0
8 5 40 0
8 -5 -40 0
10 6 7 0
10 -6 -7 0
10 6 8 0
10 -6 -8 0
7 6 9 0
7 -6 -9 0
4 6 10 0
4 -6 -10 0
8 6 12 0
8 -6 -12 0
4 6 13 0
4 -6 -13 0
3 6 14 0
3 -6 -14 0
3 6 15 0
3 -6 -15 0
6 6 17 0
6 -6 -17 0
3 6 18 0
3 -6 -18 0
2 6 19 0
2 -6 -19 0
8 6 21 0
8 -6 -21 0
2 6 22 0
2 -6 -22 0
8 6 23 0
8 -6 -23 0
2 6 24 0
2 -6 -24 0
8 6 25 0
8 -6 -25 0
1 6 26 0
1 -6 -26 0
10 6 28 0
10 -6 -28 0
1 6 29 0
1 -6 -29 0
6 6 30 0
6 -6 -30 0
2 6 31 0
2 -6 -31 0
3 6 32 0
3 -6 -32 0
8 6 33 0
8 -6 -33 0
8 6 34 0
8 -6 -34 0
7 6 36 0
7 -6 -36 0
10 6 37 0
10 -6 -37 0
7 6 39 0
7 -6 -39 0
8 6 40 0
8 -6 -40 0
1 7 9 0
1 -7 -9 0
2 7 10 0
2 -7 -10 0
6 7 11 0
6 -7 -11 0
1 7 13 0
1 -7 -13 0
1 7 14 0
1 -7 -14 0
3 7 16 0
3 -7 -16 0
5 7 18 0
5 -7 -18 0
9 7 19 0
9 -7 -19 0
6 7 20 0
6 -7 -20 0
8 7 21 0
8 -7 -21 0
1 7 22 0
1 -7 -22 0
2 7 24 0
2 -7 -24 0
10 7 25 0
10 -7 -25 0
3 7 26 0
3 -7 -26 0
9 7 27 0
9 -7 -27 0
2 7 28 0
2 -7 -28 0
10 7 29 0
10 -7 -29 0
1 7 30 0
1 -7 -30 0
9 7 34 0
9 -7 -34 0
1 7 36 0
1 -7 -36 0
1 7 39 0
1 -7 -39 0
10 7 40 0
10 -7 -40 0
6 8 9 0
6 -8 -9 0
2 8 10 0
2 -8 -10 0
2 8 11 0
2 -8 -11 0
4 8 12 0
4 -8 -12 0
10 8 14 0
10 -8 -14 0
9 8 15 0
9 -8 -15 0
4 8 18 0
4 -8 -18 0
6 8 20 0
6 -8 -20 0
6 8 21 0
6 -8 -21 0
5 8 24 0
5 -8 -24 0
7 8 26 0
7 -8 -26 0
1 8 29 0
1 -8 -29 0
6 8 31 0
6 -8 -31 0
8 8 32 0
8 -8 -32 0
4 8 33 0
4 -8 -33 0
10 8 35 0
10 -8 -35 0
6 8 36 0
6 -8 -36 0
9 8 37 0
9 -8 -37 0
8 8 39 0
8 -8 -39 0
7 8 40 0
7 -8 -40 0
1 9 10 0
1 -9 -10 0
8 9 15 0
8 -9 -15 0
9 9 16 0
9 -9 -16 0
10 9 18 0
10 -9 -18 0
9 9 19 0
9 -9 -19 0
9 9 23 0
9 -9 -23 0
10 9 24 0
10 -9 -24 0
8 9 25 0
8 -9 -25 0
10 9 26 0
10 -9 -26 0
10 9 29 0
10 -9 -29 0
7 9 31 0
7 -9 -31 0
5 9 32 0
5 -9 -32 0
2 9 34 0
2 -9 -34 0
9 9 35 0
9 -9 -35 0
9 9 36 0
9 -9 -36 0
1 9 39 0
1 -9 -39 0
7 9 40 0
7 -9 -40 0
3 10 12 0
3 -10 -12 0
7 10 13 0
7 -10 -13 0
3 10 15 0
3 -10 -15 0
8 10 16 0
8 -10 -16 0
4 10 17 0
4 -10 -17 0
4 10 18 0
4 -10 -18 0
3 10 20 0
3 -10 -20 0
1 10 21 0
1 -10 -21 0
7 10 23 0
7 -10 -23 0
3 10 26 0
3 -10 -26 0
7 10 28 0
7 -10 -28 0
6 10 29 0
6 -10 -29 0
10 10 30 0
10 -10 -30 0
3 10 31 0
3 -10 -31 0
6 10 32 0
6 -10 -32 0
8 10 34 0
8 -10 -34 0
2 10 37 0
2 -10 -37 0
5 10 38 0
5 -10 -38 0
6 10 39 0
6 -10 -39 0
10 10 40 0
10 -10 -40 0
5 11 12 0
5 -11 -12 0
4 11 13 0
4 -11 -13 0
9 11 14 0
9 -11 -14 0
5 11 16 0
5 -11 -16 0
1 11 17 0
1 -11 -17 0
4 11 19 0
4 -11 -19 0
6 11 21 0
6 -11 -21 0
9 11 22 0
9 -11 -22 0
3 11 23 0
3 -11 -23 0
7 11 27 0
7 -11 -27 0
5 11 28 0
5 -11 -28 0
5 11 29 0
5 -11 -29 0
4 11 30 0
4 -11 -30 0
8 11 31 0
8 -11 -31 0
2 11 33 0
2 -11 -33 0
7 11 34 0
7 -11 -34 0
1 11 35 0
1 -11 -35 0
5 11 36 0
5 -11 -36 0
7 11 38 0
7 -11 -38 0
7 11 39 0
7 -11 -39 0
7 11 40 0
7 -11 -40 0
4 12 14 0
4 -12 -14 0
2 12 16 0
2 -12 -16 0
7 12 17 0
7 -12 -17 0
7 12 18 0
7 -12 -18 0
8 12 20 0
8 -12 -20 0
4 12 21 0
4 -12 -21 0
8 12 22 0
8 -12 -22 0
3 12 23 0
3 -12 -23 0
10 12 24 0
10 -12 -24 0
7 12 25 0
7 -12 -25 0
7 12 28 0
7 -12 -28 0
3 12 29 0
3 -12 -29 0
6 12 31 0
6 -12 -31 0
1 12 32 0
1 -12 -32 0
3 12 33 0
3 -12 -33 0
9 12 37 0
9 -12 -37 0
7 12 39 0
7 -12 -39 0
1 13 15 0
1 -13 -15 0
2 13 17 0
2 -13 -17 0
4 13 20 0
4 -13 -20 0
6 13 21 0
6 -13 -21 0
6 13 22 0
6 -13 -22 0
7 13 23 0
7 -13 -23 0
3 13 26 0
3 -13 -26 0
8 13 27 0
8 -13 -27 0
3 13 28 0
3 -13 -28 0
4 13 29 0
4 -13 -29 0
2 13 30 0
2 -13 -30 0
10 13 31 0
10 -13 -31 0
1 13 32 0
1 -13 -32 0
9 13 35 0
9 -13 -35 0
4 13 40 0
4 -13 -40 0
2 14 16 0
2 -14 -16 0
5 14 18 0
5 -14 -18 0
10 14 19 0
10 -14 -19 0
10 14 20 0
10 -14 -20 0
8 14 21 0
8 -14 -21 0
7 14 22 0
7 -14 -22 0
2 14 23 0
2 -14 -23 0
7 14 24 0
7 -14 -24 0
4 14 25 0
4 -14 -25 0
8 14 26 0
8 -14 -26 0
10 14 28 0
10 -14 -28 0
10 14 29 0
10 -14 -29 0
9 14 30 0
9 -14 -30 0
3 14 32 0
3 -14 -32 0
8 14 35 0
8 -14 -35 0
6 14 39 0
6 -14 -39 0
3 14 40 0
3 -14 -40 0
10 15 16 0
10 -15 -16 0
10 15 17 0
10 -15 -17 0
9 15 18 0
9 -15 -18 0
5 15 19 0
5 -15 -19 0
6 15 22 0
6 -15 -22 0
2 15 26 0
2 -15 -26 0
3 15 27 0
3 -15 -27 0
9 15 28 0
9 -15 -28 0
5 15 29 0
5 -15 -29 0
5 15 30 0
5 -15 -30 0
9 15 32 0
9 -15 -32 0
5 15 33 0
5 -15 -33 0
3 15 34 0
3 -15 -34 0
2 15 36 0
2 -15 -36 0
7 15 38 0
7 -15 -38 0
8 15 39 0
8 -15 -39 0
2 15 40 0
2 -15 -40 0
7 16 17 0
7 -16 -17 0
5 16 18 0
5 -16 -18 0
9 16 19 0
9 -16 -19 0
8 16 20 0
8 -16 -20 0
2 16 21 0
2 -16 -21 0
3 16 22 0
3 -16 -22 0
5 16 23 0
5 -16 -23 0
2 16 24 0
2 -16 -24 0
2 16 25 0
2 -16 -25 0
4 16 26 0
4 -16 -26 0
4 16 27 0
4 -16 -27 0
10 16 28 0
10 -16 -28 0
10 16 31 0
10 -16 -31 0
7 16 33 0
7 -16 -33 0
9 16 34 0
9 -16 -34 0
9 16 37 0
9 -16 -37 0
5 16 38 0
5 -16 -38 0
4 16 39 0
4 -16 -39 0
4 16 40 0
4 -16 -40 0
7 17 19 0
7 -17 -19 0
7 17 22 0
7 -17 -22 0
3 17 23 0
3 -17 -23 0
2 17 24 0
2 -17 -24 0
1 17 25 0
1 -17 -25 0
2 17 28 0
2 -17 -28 0
7 17 29 0
7 -17 -29 0
4 17 30 0
4 -17 -30 0
3 17 31 0
3 -17 -31 0
4 17 32 0
4 -17 -32 0
1 17 33 0
1 -17 -33 0
5 17 35 0
5 -17 -35 0
10 17 36 0
10 -17 -36 0
6 17 37 0
6 -17 -37 0
3 17 38 0
3 -17 -38 0
7 17 40 0
7 -17 -40 0
8 18 19 0
8 -18 -19 0
5 18 20 0
5 -18 -20 0
2 18 21 0
2 -18 -21 0
9 18 22 0
9 -18 -22 0
7 18 23 0
7 -18 -23 0
6 18 25 0
6 -18 -25 0
3 18 26 0
3 -18 -26 0
6 18 27 0
6 -18 -27 0
5 18 29 0
5 -18 -29 0
9 18 30 0
9 -18 -30 0
4 18 31 0
4 -18 -31 0
3 18 32 0
3 -18 -32 0
4 18 33 0
4 -18 -33 0
8 18 36 0
8 -18 -36 0
7 18 37 0
7 -18 -37 0
10 18 38 0
10 -18 -38 0
4 18 39 0
4 -18 -39 0
9 18 40 0
9 -18 -40 0
2 19 21 0
2 -19 -21 0
5 19 22 0
5 -19 -22 0
1 19 23 0
1 -19 -23 0
8 19 24 0
8 -19 -24 0
8 19 26 0
8 -19 -26 0
3 19 29 0
3 -19 -29 0
2 19 31 0
2 -19 -31 0
9 19 32 0
9 -19 -32 0
8 19 34 0
8 -19 -34 0
1 19 36 0
1 -19 -36 0
5 19 37 0
5 -19 -37 0
10 19 38 0
10 -19 -38 0
8 19 40 0
8 -19 -40 0
3 20 21 0
3 -20 -21 0
5 20 23 0
5 -20 -23 0
9 20 25 0
9 -20 -25 0
1 20 26 0
1 -20 -26 0
1 20 27 0
1 -20 -27 0
4 20 28 0
4 -20 -28 0
4 20 30 0
4 -20 -30 0
7 20 31 0
7 -20 -31 0
9 20 32 0
9 -20 -32 0
2 20 34 0
2 -20 -34 0
1 20 36 0
1 -20 -36 0
1 20 37 0
1 -20 -37 0
5 20 38 0
5 -20 -38 0
8 20 40 0
8 -20 -40 0
7 21 22 0
7 -21 -22 0
5 21 23 0
5 -21 -23 0
2 21 24 0
2 -21 -24 0
6 21 25 0
6 -21 -25 0
6 21 26 0
6 -21 -26 0
6 21 27 0
6 -21 -27 0
6 21 30 0
6 -21 -30 0
4 21 32 0
4 -21 -32 0
4 21 33 0
4 -21 -33 0
9 21 34 0
9 -21 -34 0
5 21 36 0
5 -21 -36 0
2 21 38 0
2 -21 -38 0
7 21 39 0
7 -21 -39 0
6 22 23 0
6 -22 -23 0
7 22 24 0
7 -22 -24 0
6 22 26 0
6 -22 -26 0
3 22 27 0
3 -22 -27 0
9 22 28 0
9 -22 -28 0
1 22 29 0
1 -22 -29 0
1 22 30 0
1 -22 -30 0
10 22 31 0
10 -22 -31 0
2 22 33 0
2 -22 -33 0
5 22 34 0
5 -22 -34 0
3 22 35 0
3 -22 -35 0
9 22 36 0
9 -22 -36 0
3 22 37 0
3 -22 -37 0
4 22 38 0
4 -22 -38 0
9 22 39 0
9 -22 -39 0
4 23 24 0
4 -23 -24 0
9 23 25 0
9 -23 -25 0
7 23 27 0
7 -23 -27 0
1 23 28 0
1 -23 -28 0
3 23 31 0
3 -23 -31 0
8 23 33 0
8 -23 -33 0
7 23 34 0
7 -23 -34 0
9 23 36 0
9 -23 -36 0
4 23 37 0
4 -23 -37 0
3 23 38 0
3 -23 -38 0
2 23 40 0
2 -23 -40 0
7 24 28 0
7 -24 -28 0
2 24 29 0
2 -24 -29 0
7 24 30 0
7 -24 -30 0
8 24 32 0
8 -24 -32 0
8 24 34 0
8 -24 -34 0
3 24 35 0
3 -24 -35 0
5 24 37 0
5 -24 -37 0
4 24 38 0
4 -24 -38 0
5 24 39 0
5 -24 -39 0
3 25 26 0
3 -25 -26 0
4 25 28 0
4 -25 -28 0
6 25 29 0
6 -25 -29 0
2 25 31 0
2 -25 -31 0
6 25 32 0
6 -25 -32 0
1 25 36 0
1 -25 -36 0
4 25 38 0
4 -25 -38 0
4 25 39 0
4 -25 -39 0
4 25 40 0
4 -25 -40 0
8 26 27 0
8 -26 -27 0
3 26 28 0
3 -26 -28 0
7 26 30 0
7 -26 -30 0
6 26 31 0
6 -26 -31 0
10 26 32 0
10 -26 -32 0
7 26 34 0
7 -26 -34 0
9 26 35 0
9 -26 -35 0
7 26 36 0
7 -26 -36 0
4 26 39 0
4 -26 -39 0
7 26 40 0
7 -26 -40 0
1 27 28 0
1 -27 -28 0
6 27 31 0
6 -27 -31 0
9 27 33 0
9 -27 -33 0
7 27 34 0
7 -27 -34 0
7 27 35 0
7 -27 -35 0
6 27 36 0
6 -27 -36 0
5 27 37 0
5 -27 -37 0
4 28 29 0
4 -28 -29 0
8 28 30 0
8 -28 -30 0
9 28 33 0
9 -28 -33 0
7 28 36 0
7 -28 -36 0
2 28 38 0
2 -28 -38 0
1 28 39 0
1 -28 -39 0
1 29 30 0
1 -29 -30 0
7 29 31 0
7 -29 -31 0
2 29 33 0
2 -29 -33 0
7 29 34 0
7 -29 -34 0
8 29 35 0
8 -29 -35 0
6 29 36 0
6 -29 -36 0
1 29 38 0
1 -29 -38 0
1 29 39 0
1 -29 -39 0
4 29 40 0
4 -29 -40 0
3 30 34 0
3 -30 -34 0
7 30 35 0
7 -30 -35 0
9 30 36 0
9 -30 -36 0
2 30 37 0
2 -30 -37 0
4 30 40 0
4 -30 -40 0
7 31 34 0
7 -31 -34 0
9 31 35 0
9 -31 -35 0
7 31 38 0
7 -31 -38 0
4 31 39 0
4 -31 -39 0
9 31 40 0
9 -31 -40 0
2 32 33 0
2 -32 -33 0
2 32 34 0
2 -32 -34 0
6 32 35 0
6 -32 -35 0
9 32 36 0
9 -32 -36 0
7 32 37 0
7 -32 -37 0
10 32 38 0
10 -32 -38 0
2 33 34 0
2 -33 -34 0
4 33 37 0
4 -33 -37 0
8 33 38 0
8 -33 -38 0
9 33 39 0
9 -33 -39 0
6 34 36 0
6 -34 -36 0
8 34 38 0
8 -34 -38 0
10 34 39 0
10 -34 -39 0
3 35 37 0
3 -35 -37 0
10 35 38 0
10 -35 -38 0
6 36 37 0
6 -36 -37 0
10 36 38 0
10 -36 -38 0
5 36 40 0
5 -36 -40 0
6 37 38 0
6 -37 -38 0
10 37 39 0
10 -37 -39 0
8 38 40 0
8 -38 -40 0
9 39 40 0
9 -39 -40 0
